
Gurobi 9.1.2 (win64, Java) logging started Thu Nov 11 18:19:59 2021

Academic license - for non-commercial use only - expires 2022-10-30
Gurobi Optimizer version 9.1.2 build v9.1.2rc0 (win64)
Thread count: 6 physical cores, 12 logical processors, using up to 12 threads
Optimize a model with 30 rows, 200 columns and 400 nonzeros
Model fingerprint: 0xe7a146e6
Variable types: 0 continuous, 200 integer (200 binary)
Coefficient statistics:
  Matrix range     [1e+00, 1e+03]
  Objective range  [1e+02, 1e+03]
  Bounds range     [1e+00, 1e+00]
  RHS range        [1e+00, 8e+02]
Found heuristic solution: objective 6172.0000000
Presolve removed 4 rows and 93 columns
Presolve time: 0.00s
Presolved: 26 rows, 107 columns, 213 nonzeros
Variable types: 0 continuous, 107 integer (107 binary)
Presolved: 26 rows, 107 columns, 213 nonzeros


Root relaxation: objective 7.140176e+03, 87 iterations, 0.00 seconds

    Nodes    |    Current Node    |     Objective Bounds      |     Work
 Expl Unexpl |  Obj  Depth IntInf | Incumbent    BestBd   Gap | It/Node Time

     0     0 7140.17642    0   11 6172.00000 7140.17642  15.7%     -    0s
H    0     0                    6622.0000000 7140.17642  7.83%     -    0s
H    0     0                    6761.0000000 7140.17642  5.61%     -    0s
H    0     0                    6938.0000000 7137.00627  2.87%     -    0s
     0     0 7077.00000    0    6 6938.00000 7077.00000  2.00%     -    0s
H    0     0                    7077.0000000 7077.00000  0.00%     -    0s
     0     0 7077.00000    0    6 7077.00000 7077.00000  0.00%     -    0s

Cutting planes:
  Gomory: 4
  Cover: 7
  Clique: 1
  MIR: 4
  StrongCG: 2

Explored 1 nodes (134 simplex iterations) in 0.01 seconds
Thread count was 12 (of 12 available processors)

Solution count 5: 7077 6938 6761 ... 6172

Optimal solution found (tolerance 1.00e-12)
Best objective 7.077000000000e+03, best bound 7.077000000000e+03, gap 0.0000%
